WARNING: for repeatability, setting FPU to use double precision
============================[ Problem Statistics ]=============================
|                                                                             |
|  Number of variables:           100                                         |
|  Number of clauses:             449                                         |
|  Parse time:                   0.00 s                                       |
|  Eliminated clauses:           0.00 Mb                                      |
|  Simplification time:          0.00 s                                       |
|                                                                             |
============================[ Search Statistics ]==============================
| Conflicts |          ORIGINAL         |          LEARNT          | Progress |
|           |    Vars  Clauses Literals |    Limit  Clauses Lit/Cl |          |
===============================================================================
|       100 |      95      440     1341 |      161      100      7 |  0.010 % |
===============================================================================
restarts              : 2
conflicts             : 110            (40771 /sec)
decisions             : 152            (0.00 % random) (56338 /sec)
propagations          : 2489           (922535 /sec)
conflict literals     : 747            (11.81 % deleted)
Memory used           : 13.00 MB
CPU time              : 0.002698 s

SATISFIABLE
